IBRION = 5
NSW = 1
ISIF = 2
POTIM = 0.015
NFREE = 2
