Si
 1.0000000000000000
     3.8669745922000001    0.0000000000000000    0.0000000000000000
     1.9334872961000000    3.3488982325999999    0.0000000000000000
     1.9334872961000000    1.1162994109000000    3.1573715331000001
 Si 
   2
Direct
  0.7532014629880029  0.7547475896492500  0.7364773381756924
  0.5003765120527335  0.4997693930804286  0.4998103269451946
Cartesian
 -0.0011273984120117  0.0001944443684823 -0.0105262088143468
  0.0001416384001827 -0.0002394584976988 -0.0002975211888498
