Si
 1.0000000000000000
     3.8669745922000001    0.0000000000000000    0.0000000000000000
     1.9334872961000000    3.3488982325999999    0.0000000000000000
     1.9334872961000000    1.1162994109000000    3.1573715331000001
 Si 
   2
Direct
  0.7452895471291855  0.7528139532371692  0.7494178436121492
  0.5001571765610500  0.5011545183862729  0.5002961080811551
Cartesian
 -0.0034132337221937  0.0021774762685197 -0.0004493083590845
  0.0007913919330422  0.0010652215815452  0.0002235221106364
