IBRION = 0
NSW = 4
POTIM = 1.0
TEBEG = 300
TEEND = 300
MDALGO = 0
