IBRION = 2
NSW = 2
EDIFFG = -0.05
ISIF = 2
IMAGES = 1
LCLIMB = .TRUE.
SPRING = -5
