Si
1.0
  5.468728  0.000000  0.000000
  0.000000  5.468728  0.000000
  0.000000  0.000000  5.468728
Si
2
Direct
  0.000000  0.000000  0.000000
  0.250000  0.250000  0.250000
