Si
 1.0000000000000000
     3.8669745922000001    0.0000000000000000    0.0000000000000000
     1.9334872961000000    3.3488982325999999    0.0000000000000000
     1.9334872961000000    1.1162994109000000    3.1573715331000001
 Si 
   2
Direct
  0.7723960421235849  0.7530581923133464  0.7530582014545655
  0.5376039438764136  0.4969417796866541  0.4969417935454345
