IBRION = 2
NSW = 3
EDIFFG = -0.05
ISIF = 2
