Si2_neb_02
1.0
3.8669745922 0.0000000000 0.0000000000
1.9334872961 3.3488982326 0.0000000000
1.9334872961 1.1162994109 3.1573715331
Si
2
Direct
0.749999979 0.749999983 0.749999997
0.620000007 0.499999989 0.499999998
