Si
 1.0000000000000000
     3.8669745922000001    0.0000000000000000    0.0000000000000000
     1.9334872961000000    3.3488982325999999    0.0000000000000000
     1.9334872961000000    1.1162994109000000    3.1573715331000001
 Si 
   2
Direct
  0.7499999789999993  0.7499999830000005  0.7499999969999999
  0.5000000069999997  0.4999999890000004  0.4999999979999999
