Si
 1.0000000000000000
     3.8669745922000001    0.0000000000000000    0.0000000000000000
     1.9334872961000000    3.3488982325999999    0.0000000000000000
     1.9334872961000000    1.1162994109000000    3.1573715331000001
 Si 
   2
Direct
  0.7751571368526636  0.7609435794174227  0.7609435913440117
  0.5948428491473357  0.4890563925825780  0.4890564036559877
